%%% static parameters %%%
timespan = 1;
Clients_N = [4000];
Demand_W = [15];
Lt0 = [4];
Lt1 = [4];
SS_ = [0.85];
DS_D = [20];
K = [200];
MA = [500];
HC = [0.05];
%%% dynamic parameters %%%
lost_ratio_sales_ret_th = 0.0007086704009913217;
lost_ratio_sales_ret_w = 96;
lost_ratio_sales_dis_th = 0.0009876164478646904;
lost_ratio_sales_dis_w = 4;
lost_ratio_sales_fac_th = 0.0007216789336968337;
lost_ratio_sales_fac_w = 43;
stock_customer_MA_mean_relative_th = 0.5053651745994028;
stock_customer_MA_mean_relative_w = 100;
stock_distributor_MA_mean_relative_th = 0.44800845258630906;
stock_distributor_MA_mean_relative_w = 100;
stock_retailer_MA_mean_relative_th = 0.8006715545490746;
stock_retailer_MA_mean_relative_w = 91;
stock_factory_MA_mean_relative_th = 0.9157536658746918;
stock_factory_MA_mean_relative_w = 60;
